ObjectiveValue = 4363.4;
flow=[(1,6,3)(5,0,6)(5,1,2)(5,6,17)(5,8,1)(5,10,5)(5,11,8)(5,12,10)(5,13,2)(6,1,8)(6,5,1)(6,10,1)(6,11,11)(9,6,3)(10,4,1)(10,6,1)(10,9,3)(11,5,2)(11,6,5)(11,8,5)(11,10,4)(11,12,2)(12,1,1)(12,5,12)(12,6,12)(12,11,5)];
